32 28
14 223
26 273
8 764
8 888
26 740
5 582
18 160
8 351
19 476
22 203
16 813
24 995
24 636
7 527
9 709
5 835
17 742
21 39
6 935
23 928
18 810
12 75
14 993
3 157
22 977
9 517
7 106
11 159
6 668
25 569
26 176
25 555
